
List of user-set options:

                                    Name   Value                used
                           compl_inf_tol = 1                     yes
                         constr_viol_tol = 1                     yes
                            dual_inf_tol = 1000                  yes
                           linear_solver = ma97                  yes
                              ma86_small = 1e-30                  no
                                  ma86_u = 0.0001                 no
                              ma97_order = best                  yes
                              ma97_small = 1e-30                 yes
                            ma97_switch1 = at_start              yes
                            ma97_switch2 = od_hd_reuse           yes
                                  ma97_u = 1e-06                 yes
                               ma97_umax = 0.5                   yes
                                max_iter = 1000                  yes
                    max_refinement_steps = 20                    yes
                    min_refinement_steps = 5                     yes
                                 mu_init = 1e-06                 yes
           mu_superlinear_decrease_power = 1.25                  yes
                   nlp_scaling_min_value = 1e-08                 yes
                        option_file_name = Preset_Case:_818_NCP.opt  yes
                             output_file = ./tmp/Preset_Case:_818_NCP.output  yes
                      print_user_options = yes                   yes
        required_infeasibility_reduction = 1                      no
                                     tol = 1e-08                 yes
                   warm_start_bound_frac = 1e-20                 yes
                   warm_start_bound_push = 1e-20                 yes
                   warm_start_init_point = yes                   yes
              warm_start_mult_bound_push = 1e-20                 yes
                warm_start_mult_init_max = 1e+40                 yes
             warm_start_slack_bound_frac = 1e-20                 yes
             warm_start_slack_bound_push = 1e-20                 yes

******************************************************************************
This program contains Ipopt, a library for large-scale nonlinear optimization.
 Ipopt is released as open source code under the Eclipse Public License (EPL).
         For more information visit http://projects.coin-or.org/Ipopt
******************************************************************************

This is Ipopt version 3.12.10, running with linear solver ma97.

Number of nonzeros in equality constraint Jacobian...:   117167
Number of nonzeros in inequality constraint Jacobian.:      213
Number of nonzeros in Lagrangian Hessian.............:    47513

Total number of variables............................:    29977
                     variables with only lower bounds:    11312
                variables with lower and upper bounds:    15135
                     variables with only upper bounds:        0
Total number of equality constraints.................:    29864
Total number of inequality constraints...............:       25
        inequality constraints with only lower bounds:        4
   inequality constraints with lower and upper bounds:        0
        inequality constraints with only upper bounds:       21

iter    objective    inf_pr   inf_du lg(mu)  ||d||  lg(rg) alpha_du alpha_pr  ls
   0 -1.8427821e-01 8.38e-02 2.00e+00  -6.0 0.00e+00    -  0.00e+00 0.00e+00   0
In iteration 0, 10 Slacks too small, adjusting variable bounds
   1 -1.8427821e-01 8.38e-02 3.68e+04  -6.0 6.54e+11    -  3.68e-12 3.29e-21h  1
   2 -1.8427395e-01 8.38e-02 3.68e+04  -6.0 1.69e+02    -  1.10e-03 1.06e-05f  1
   3 -1.8422210e-01 8.37e-02 3.64e+04  -6.0 1.00e+02    -  2.54e-02 1.43e-03h  1
   4 -1.8271945e-01 8.02e-02 3.54e+04  -6.0 1.00e+02    -  1.54e-02 4.11e-02h  1
   5 -1.7996024e-01 7.33e-02 3.49e+04  -6.0 8.83e+01    -  8.51e-03 8.61e-02h  2
   6 -1.7604326e-01 6.54e-02 3.29e+04  -6.0 7.82e+01    -  5.61e-02 1.08e-01h  2
   7 -1.7296059e-01 5.90e-02 3.23e+04  -6.0 6.79e+01    -  1.42e-02 9.70e-02h  3
   8 -1.6855850e-01 5.04e-02 3.22e+04  -6.0 6.08e+01    -  1.02e-03 1.46e-01h  2
   9 -1.6446861e-01 6.52e-02 2.76e+04  -6.0 5.03e+01    -  1.40e-01 1.57e-01h  1
iter    objective    inf_pr   inf_du lg(mu)  ||d||  lg(rg) alpha_du alpha_pr  ls
  10r-1.6446861e-01 6.52e-02 1.00e+03  -1.4 0.00e+00    -  0.00e+00 2.52e-07R  2
  11r-1.6235459e-01 6.49e-02 9.99e+02  -1.4 1.33e+05    -  3.44e-06 1.05e-05f  1
  12 -1.6231715e-01 6.48e-02 2.35e+05  -6.0 4.44e+01    -  7.58e-02 1.82e-03h  1
  13 -1.6153615e-01 6.28e-02 2.79e+06  -6.0 6.54e+01    -  3.24e-03 3.78e-02h  1
  14 -1.5893438e-01 6.66e-02 2.43e+06  -6.0 4.09e+01    -  1.60e-01 1.31e-01h  1
  15 -1.5778362e-01 6.65e-02 2.24e+06  -6.0 3.08e+01    -  1.27e-01 7.73e-02h  1
  16 -1.5732786e-01 6.64e-02 2.15e+06  -6.0 4.23e+01    -  3.77e-02 3.99e-02h  2
  17 -1.5695994e-01 6.62e-02 2.07e+06  -6.0 4.23e+01    -  7.44e-02 3.57e-02h  1
  18 -1.5658106e-01 6.62e-02 1.99e+06  -6.0 4.00e+01    -  4.48e-02 3.80e-02h  3
  19 -1.5653121e-01 6.59e-02 1.99e+06  -6.0 3.63e+01    -  4.38e-02 4.59e-03h  1
iter    objective    inf_pr   inf_du lg(mu)  ||d||  lg(rg) alpha_du alpha_pr  ls
  20 -1.5618572e-01 6.55e-02 1.92e+06  -6.0 3.54e+01    -  2.43e-01 3.29e-02h  3
  21 -1.5564445e-01 6.69e-02 1.80e+06  -6.0 2.67e+01    -  1.06e-01 6.00e-02h  2
  22 -1.5530545e-01 6.63e-02 1.73e+06  -6.0 2.28e+01    -  4.07e-01 4.09e-02h  2
  23 -1.5510274e-01 6.54e-02 1.68e+06  -6.0 2.07e+01    -  2.04e-01 2.98e-02h  2
  24 -1.5483855e-01 6.46e-02 1.60e+06  -6.0 2.37e+01    -  4.68e-01 4.56e-02h  1
  25 -1.5468734e-01 6.35e-02 1.55e+06  -6.0 3.77e+01    -  1.13e-01 3.30e-02h  5
  26 -1.5451951e-01 6.24e-02 1.50e+06  -6.0 3.95e+01    -  4.28e-01 3.32e-02h  5
  27 -1.5430084e-01 6.11e-02 1.45e+06  -6.0 6.09e+01    -  2.47e-01 3.41e-02h  5
  28 -1.5407960e-01 5.99e-02 1.40e+06  -6.0 7.48e+01    -  5.23e-01 3.29e-02h  5
  29 -1.5390887e-01 5.86e-02 1.35e+06  -6.0 1.54e+01  -4.0 3.55e-01 3.35e-02h  5
iter    objective    inf_pr   inf_du lg(mu)  ||d||  lg(rg) alpha_du alpha_pr  ls
  30 -1.5383264e-01 5.79e-02 1.33e+06  -6.0 2.58e+01  -4.5 3.44e-01 1.43e-02h  6
  31 -1.5375316e-01 5.72e-02 1.32e+06  -6.0 3.69e+01  -5.0 1.96e-01 1.35e-02h  6
  32 -1.5367784e-01 5.65e-02 1.30e+06  -6.0 2.90e+01  -4.5 4.58e-01 1.44e-02h  6
  33 -1.5359693e-01 5.57e-02 1.27e+06  -6.0 1.83e+01  -4.1 3.16e-01 1.67e-02h  6
  34 -1.5352255e-01 5.50e-02 1.26e+06  -6.0 3.11e+01  -4.6 2.26e-01 1.46e-02h  6
  35 -1.5352221e-01 5.50e-02 1.26e+06  -6.0 1.44e+01  -3.3 8.26e-01 6.56e-05h  1
  36 -1.5347663e-01 5.45e-02 1.24e+06  -6.0 1.78e+01  -3.7 1.92e-01 9.90e-03h  7
  37 -1.5346681e-01 5.43e-02 1.24e+06  -6.0 3.24e+01  -4.2 6.15e-01 2.66e-03h  8
  38 -1.5342921e-01 5.40e-02 1.23e+06  -6.0 2.50e+01  -4.7 3.77e-01 7.61e-03h  7
  39 -1.5344529e-01 5.39e-02 1.23e+06  -6.0 1.20e+04  -4.3 4.98e-10 3.52e-05f  5
iter    objective    inf_pr   inf_du lg(mu)  ||d||  lg(rg) alpha_du alpha_pr  ls
  40 -1.5296379e-01 5.31e-02 1.12e+06  -6.0 1.40e+01  -2.9 7.63e-01 8.71e-02h  1
  41 -1.5292193e-01 5.26e-02 1.11e+06  -6.0 1.66e+01  -3.4 2.12e-01 1.04e-02h  7
  42 -1.5291598e-01 5.25e-02 1.11e+06  -6.0 3.78e+01  -3.9 4.59e-01 2.16e-03h  8
  43 -1.5287366e-01 5.20e-02 1.10e+06  -6.0 1.71e+01  -4.4 4.05e-01 1.07e-02h  7
  44 -1.5283166e-01 5.15e-02 1.09e+06  -6.0 2.38e+01  -4.8 1.09e-01 1.04e-02h  7
  45 -1.5282991e-01 5.15e-02 1.09e+06  -6.0 1.06e+01  -3.5 8.84e-02 3.81e-04h  1
  46 -1.5278658e-01 5.09e-02 1.07e+06  -6.0 1.23e+01  -4.0 3.56e-01 1.18e-02h  7
  47 -1.5274115e-01 5.04e-02 1.06e+06  -6.0 1.80e+01  -4.5 1.16e-01 1.19e-02h  7
  48 -1.5274028e-01 5.04e-02 1.06e+06  -6.0 1.18e+01  -3.1 6.26e-02 1.94e-04h  1
  49 -1.5266168e-01 5.03e-02 1.04e+06  -6.0 1.11e+01  -3.6 1.72e-01 2.15e-02h  6
iter    objective    inf_pr   inf_du lg(mu)  ||d||  lg(rg) alpha_du alpha_pr  ls
  50 -1.5262387e-01 5.07e-02 1.03e+06  -6.0 1.44e+01  -4.1 2.07e-01 1.09e-02h  7
  51 -1.5257983e-01 5.10e-02 1.01e+06  -6.0 1.98e+01  -4.6 1.99e-01 1.21e-02h  7
  52 -1.5257936e-01 5.10e-02 1.01e+06  -6.0 1.13e+01  -3.2 2.62e-02 1.17e-04h  1
  53 -1.5250173e-01 5.21e-02 9.90e+05  -6.0 1.09e+01  -3.7 9.38e-02 2.30e-02h  6
  54 -1.5246255e-01 5.23e-02 9.78e+05  -6.0 1.35e+01  -4.2 7.41e-02 1.19e-02h  7
  55 -1.5241958e-01 5.25e-02 9.66e+05  -6.0 2.05e+01  -4.7 8.97e-02 1.26e-02h  7
  56 -1.5241916e-01 5.24e-02 9.66e+05  -6.0 1.02e+01  -3.3 1.33e-02 1.12e-04h  1
  57 -1.5234117e-01 5.40e-02 9.42e+05  -6.0 1.11e+01  -3.8 6.37e-02 2.50e-02h  6
  58 -1.5230426e-01 5.41e-02 9.31e+05  -6.0 1.43e+01  -4.3 4.11e-02 1.21e-02h  7
  59 -1.5226393e-01 5.41e-02 9.18e+05  -6.0 2.13e+01  -4.8 3.74e-02 1.30e-02h  7
iter    objective    inf_pr   inf_du lg(mu)  ||d||  lg(rg) alpha_du alpha_pr  ls
  60 -1.5226335e-01 5.41e-02 9.18e+05  -6.0 8.69e+00  -3.4 1.69e-02 1.58e-04h  1
  61 -1.5219112e-01 5.56e-02 8.95e+05  -6.0 1.10e+01  -3.9 6.19e-02 2.48e-02h  6
  62 -1.5215660e-01 5.56e-02 8.84e+05  -6.0 1.52e+01  -4.4 6.80e-02 1.23e-02h  7
  63 -1.5212172e-01 5.54e-02 8.72e+05  -6.0 2.17e+01  -4.9 3.89e-03 1.36e-02h  7
  64 -1.5211858e-01 5.53e-02 8.72e+05  -6.0 9.09e+00  -3.5 4.78e-02 8.63e-04h  1
  65 -1.5205413e-01 5.65e-02 8.51e+05  -6.0 1.06e+01  -4.0 2.20e-01 2.41e-02h  6
  66 -1.5201943e-01 5.63e-02 8.39e+05  -6.0 1.61e+01  -4.5 1.12e-01 1.36e-02h  7
  67 -1.5200239e-01 5.59e-02 8.29e+05  -6.0 2.41e+01  -5.0 5.68e-04 1.24e-02h  7
  68 -1.5197245e-01 5.56e-02 8.22e+05  -6.0 1.34e+01  -3.6 6.57e-02 8.31e-03h  1
  69 -1.5191451e-01 5.63e-02 8.01e+05  -6.0 1.07e+01  -4.1 2.31e-03 2.49e-02h  6
iter    objective    inf_pr   inf_du lg(mu)  ||d||  lg(rg) alpha_du alpha_pr  ls
  70 -1.5190533e-01 5.62e-02 7.99e+05  -6.0 1.77e+01  -3.7 1.20e-01 2.51e-03h  1
  71 -1.5185053e-01 5.68e-02 7.80e+05  -6.0 1.03e+01  -4.2 2.46e-02 2.44e-02h  6
  72 -1.5184901e-01 5.68e-02 7.79e+05  -6.0 2.40e+01  -3.7 9.96e-02 3.96e-04h  1
  73 -1.5070797e-01 1.09e-01 4.45e+07  -6.0 1.03e+01  -4.2 1.21e-02 6.17e-01H  1
  74 -1.5066093e-01 1.05e-01 4.28e+07  -6.0 2.91e+00  -3.8 3.46e-01 3.88e-02h  1
  75 -1.5035355e-01 7.98e-02 1.31e+07  -6.0 4.36e+00  -4.3 2.96e-02 6.95e-01H  1
  76 -1.5287136e-01 3.44e-02 4.94e+04  -6.0 1.08e+01  -4.8 4.09e-01 1.00e+00h  1
  77 -1.5430505e-01 4.87e-02 4.69e+04  -6.0 3.01e+01  -5.2 1.04e-01 1.18e-01h  1
  78 -1.5719038e-01 1.12e-01 4.34e+03  -6.0 3.23e+01  -5.7 3.69e-01 1.90e-01f  2
  79 -1.5832354e-01 1.91e-01 4.57e+04  -6.0 1.55e+01  -5.3 1.52e-01 3.34e-01h  1
iter    objective    inf_pr   inf_du lg(mu)  ||d||  lg(rg) alpha_du alpha_pr  ls
  80 -1.5929086e-01 2.08e-01 1.05e+05  -6.0 4.56e+01  -5.8 3.32e-01 1.03e-01h  3
  81 -1.6025359e-01 2.35e-01 1.56e+05  -6.0 1.94e+02  -6.2 1.04e-01 3.27e-02h  2
  82 -1.6171578e-01 2.66e-01 6.72e+05  -6.0 5.22e+01  -5.8 7.95e-01 1.35e-01H  1
  83 -1.6214380e-01 2.68e-01 8.97e+05  -6.0 1.09e+02  -6.3 2.52e-01 1.83e-02h  5
  84 -1.6263210e-01 2.68e-01 1.59e+06  -6.0 4.15e+01  -5.9 8.37e-01 4.74e-02h  3
  85 -1.6376082e-01 2.79e+00 1.84e+06  -6.0 3.33e+01  -5.4 9.63e-01 2.44e-01h  1
  86 -1.6377417e-01 2.79e+00 8.19e+05  -6.0 4.78e+01  -5.9 1.20e-01 1.03e-03h  1
  87 -1.6444119e-01 2.79e+00 4.97e+06  -6.0 2.85e+03  -6.4 4.98e-04 1.42e-03h  1
  88 -1.6775010e-01 1.76e+00 3.14e+06  -6.0 4.81e+01  -6.0 7.38e-01 3.86e-01h  1
  89 -1.6899694e-01 1.69e+00 2.90e+06  -6.0 2.06e+02  -6.4 1.03e-01 4.61e-02h  1
iter    objective    inf_pr   inf_du lg(mu)  ||d||  lg(rg) alpha_du alpha_pr  ls
  90 -1.7825809e-01 9.45e-01 1.22e+05  -6.0 6.12e+01  -6.0 2.14e-04 1.00e+00h  1
  91 -1.8013441e-01 9.04e-01 1.16e+05  -6.0 2.49e+02  -6.5 4.61e-02 4.58e-02h  1
  92 -1.8374497e-01 3.63e+00 9.48e+04  -6.0 4.42e+02  -7.0 1.53e-01 2.00e-01f  1
  93 -1.8368409e-01 3.60e+00 9.30e+04  -6.0 2.02e+02  -6.5 1.67e-02 2.06e-02h  1
  94 -1.8377426e-01 3.60e+00 8.94e+04  -6.0 9.87e+02  -7.0 1.08e-01 1.23e-03h  1
  95 -1.8432780e-01 3.49e+00 8.74e+04  -6.0 1.22e+02  -6.6 1.43e-03 3.04e-02f  1
  96 -1.8435670e-01 3.49e+00 8.73e+04  -6.0 9.57e+02  -7.1 2.44e-03 4.36e-04h  1
  97 -1.8628604e-01 3.40e+00 7.96e+04  -6.0 1.94e+02  -6.6 1.02e-03 1.27e-01f  1
  98 -1.8713204e-01 3.68e+00 7.61e+04  -6.0 3.44e+02  -7.1 5.01e-02 4.07e-02h  1
  99 -1.8832124e-01 4.76e+00 7.51e+04  -6.0 1.09e+03  -7.6 3.70e-03 1.74e-02h  1
iter    objective    inf_pr   inf_du lg(mu)  ||d||  lg(rg) alpha_du alpha_pr  ls
 100 -1.8859107e-01 4.72e+00 7.43e+04  -6.0 6.80e+02  -8.1 1.44e-02 1.00e-02h  1
 101 -1.8971484e-01 4.90e+00 7.37e+04  -6.0 7.10e+03  -8.6 2.89e-03 1.07e-02h  1
 102 -1.9009694e-01 4.76e+00 6.81e+04  -6.0 2.94e+02  -7.2 1.67e-01 3.15e-02f  1
 103 -1.9262465e-01 5.30e+00 6.47e+04  -6.0 1.72e+03  -7.7 1.42e-04 6.86e-02h  1
 104 -1.9512388e-01 5.36e+00 5.64e+04  -6.0 5.35e+02  -7.3 1.36e-01 1.25e-01h  1
 105 -1.9562342e-01 5.21e+00 5.07e+04  -6.0 3.47e+02  -7.7 2.77e-01 2.78e-02h  1
 106 -1.9610965e-01 5.79e+00 4.73e+04  -6.0 2.01e+02  -6.4 9.84e-02 5.79e-02h  1
 107 -1.9681783e-01 9.76e+00 4.27e+04  -6.0 9.84e+01  -6.9 8.58e-02 1.01e-01h  1
 108 -1.9753856e-01 8.78e+00 3.58e+04  -6.0 3.43e+01  -5.6 2.51e-01 1.28e-01h  1
 109 -1.9982841e-01 1.78e+01 2.23e+04  -6.0 3.82e+01  -6.0 2.36e-01 4.17e-01h  1
iter    objective    inf_pr   inf_du lg(mu)  ||d||  lg(rg) alpha_du alpha_pr  ls
 110 -2.0080517e-01 1.56e+01 1.82e+04  -6.0 4.40e+01  -6.5 3.30e-01 1.29e-01h  1
 111 -2.0536988e-01 9.29e+00 8.00e+03  -6.0 8.17e+01  -7.0 1.23e-04 7.13e-01h  1
 112 -2.0785788e-01 5.09e+00 2.47e+03  -6.0 2.61e+02  -7.5 1.00e+00 4.45e-01h  1
 113 -2.1170344e-01 3.79e+00 1.16e+03  -6.0 6.18e+02  -8.0 1.00e+00 3.94e-01h  1
 114 -2.1386915e-01 1.08e+01 1.03e+03  -6.0 1.95e+03  -8.4 2.25e-01 9.04e-02h  1
 115 -2.1830037e-01 4.95e+00 4.21e+02  -6.0 5.10e+02  -8.0 8.11e-01 5.52e-01h  1
 116 -2.2310664e-01 2.77e+00 1.83e+02  -6.0 7.15e+02  -8.5 1.00e+00 4.93e-01h  1
 117 -2.2454381e-01 2.06e+00 1.24e+02  -6.0 3.29e+02  -8.1 5.38e-01 3.23e-01h  1
 118 -2.2589116e-01 1.84e+00 1.83e+02  -6.0 1.16e+03  -8.5 3.99e-01 1.71e-01h  1
 119 -2.2607307e-01 1.76e+00 1.72e+02  -6.0 6.41e+02  -8.1 4.00e-02 4.52e-02h  1
iter    objective    inf_pr   inf_du lg(mu)  ||d||  lg(rg) alpha_du alpha_pr  ls
 120 -2.2964236e-01 2.34e+00 6.05e+01  -6.0 1.67e+03  -8.6 4.30e-02 3.88e-01h  1
 121 -2.2982489e-01 2.25e+00 2.27e+02  -6.0 4.85e+02  -8.2 5.75e-01 3.70e-02h  1
 122 -2.3117903e-01 2.17e+00 5.10e+01  -6.0 1.43e+03  -8.6 4.15e-01 1.28e-01h  1
 123 -2.3112014e-01 2.16e+00 1.39e+02  -6.0 1.83e+03  -7.3 1.73e-02 7.25e-03h  1
 124 -2.3160516e-01 1.68e+00 3.86e+01  -6.0 2.00e+02  -7.8 2.15e-02 2.38e-01h  1
 125 -2.3173751e-01 1.63e+00 3.90e+01  -6.0 3.63e+02  -8.3 5.89e-02 3.36e-02h  1
 126 -2.3174142e-01 1.62e+00 4.24e+01  -6.0 2.38e+02  -7.8 9.33e-03 1.82e-03h  1
 127 -2.3339607e-01 3.37e+00 7.91e+01  -6.0 1.17e+03  -8.3 2.61e-01 4.69e-01f  1
 128 -2.3500813e-01 1.27e+00 8.69e+01  -6.0 1.90e+02  -7.9 7.31e-01 1.00e+00h  1
 129 -2.3597899e-01 1.05e+00 6.18e+02  -6.0 4.10e+02  -8.4 6.36e-01 2.71e-01h  1
iter    objective    inf_pr   inf_du lg(mu)  ||d||  lg(rg) alpha_du alpha_pr  ls
 130 -2.3653480e-01 1.02e+01 1.37e+03  -6.0 5.56e+01  -7.0 8.28e-02 1.00e+00h  1
 131 -2.3705153e-01 2.58e+00 9.86e+02  -6.0 5.67e+00  -5.7 5.40e-01 1.00e+00h  1
 132 -2.3724664e-01 3.22e+00 4.66e+03  -6.0 1.25e+01  -6.2 1.01e-01 6.46e-01h  1
 133 -2.3725919e-01 3.16e+00 4.62e+03  -6.0 2.24e+01  -6.7 6.90e-01 2.27e-02h  1
 134 -2.3756751e-01 3.26e-01 5.28e+02  -6.0 3.06e+01  -7.1 7.67e-01 8.97e-01h  1
 135 -2.3791538e-01 1.20e-01 1.94e+02  -6.0 8.20e+01  -7.6 6.45e-01 6.36e-01h  1
 136 -2.3895741e-01 4.94e-01 3.31e+01  -6.0 1.96e+02  -8.1 6.92e-01 8.62e-01f  1
 137 -2.4094841e-01 1.79e+00 3.47e-01  -6.0 3.22e+02  -8.6 1.00e+00 1.00e+00h  1
 138 -2.4193882e-01 1.60e+00 1.30e+00  -6.0 7.09e+02  -9.0 3.66e-01 3.23e-01h  1
 139 -2.4259010e-01 3.96e+00 9.19e-01  -6.0 4.64e+02  -8.6 8.98e-01 1.00e+00h  1
iter    objective    inf_pr   inf_du lg(mu)  ||d||  lg(rg) alpha_du alpha_pr  ls
 140 -2.4403437e-01 3.03e+00 8.38e+00  -6.0 1.30e+03  -9.1 2.59e-01 3.28e-01h  1
 141 -2.4549926e-01 1.77e+00 7.71e+01  -6.0 3.12e+02  -8.7 7.32e-01 7.93e-01h  1
 142 -2.4576675e-01 1.59e+00 1.98e+02  -6.0 1.11e+03  -8.2 3.77e-01 1.54e-01h  1
 143 -2.4588651e-01 1.34e+01 4.86e+02  -6.0 2.93e+03  -8.7 2.89e-02 4.45e-01H  1
 144 -2.4818757e-01 2.16e+01 6.78e+02  -6.0 1.89e+03  -9.2 2.51e-01 2.96e-01h  1
 145 -2.4855691e-01 1.85e+01 6.42e+02  -6.0 5.35e+02  -8.8 1.22e-01 1.51e-01h  1
 146 -2.4945288e-01 1.63e+01 7.30e+02  -6.0 1.72e+03  -9.3 3.77e-01 1.22e-01h  1
 147 -2.5057527e-01 9.69e+00 1.51e+03  -6.0 4.62e+02  -8.8 1.00e+00 3.94e-01h  1
 148 -2.5352056e-01 1.09e+01 1.97e+05  -6.0 1.30e+03  -9.3 1.73e-02 5.04e-01h  1
 149 -2.5438947e-01 8.61e+00 1.48e+05  -6.0 9.41e+02  -8.9 3.06e-01 2.48e-01h  1
iter    objective    inf_pr   inf_du lg(mu)  ||d||  lg(rg) alpha_du alpha_pr  ls
 150 -2.5504535e-01 8.69e+00 1.36e+05  -6.0 2.23e+03  -9.4 3.45e-03 8.05e-02h  1
 151 -2.5510763e-01 7.68e+00 1.19e+05  -6.0 3.54e+02  -6.2 4.34e-02 1.22e-01h  1
 152 -2.5509893e-01 6.67e+00 1.04e+05  -6.0 7.81e+01  -6.7 4.41e-04 1.31e-01h  1
 153 -2.5511288e-01 5.09e+00 7.92e+04  -6.0 5.79e+00  -6.3 2.94e-01 2.37e-01h  1
 154 -2.5514254e-01 1.34e-02 2.38e+01  -6.0 6.85e+00  -6.7 3.21e-01 1.00e+00h  1
 155 -2.5520496e-01 1.59e-02 1.38e+00  -6.0 1.06e+01  -7.2 9.64e-01 1.00e+00h  1
 156 -2.5537760e-01 1.40e-01 1.81e+00  -6.0 3.02e+01  -7.7 1.00e+00 1.00e+00h  1
 157 -2.5565574e-01 1.88e-01 3.98e+00  -6.0 7.85e+01  -8.2 9.01e-01 5.60e-01h  1
 158 -2.5608846e-01 7.59e-01 4.58e+01  -6.0 1.78e+02  -8.7 1.00e+00 5.21e-01h  1
 159 -2.5610105e-01 2.69e-01 2.16e+01  -6.0 3.55e+01  -6.4 5.88e-04 6.73e-01h  1
iter    objective    inf_pr   inf_du lg(mu)  ||d||  lg(rg) alpha_du alpha_pr  ls
 160 -2.5611535e-01 5.13e-03 5.79e-01  -6.0 3.68e+00  -6.9 1.00e+00 1.00e+00f  1
 161 -2.5614921e-01 2.75e-02 2.54e+00  -6.0 1.02e+01  -7.4 1.00e+00 1.00e+00h  1
 162 -2.5611077e-01 1.93e+00 1.85e+02  -6.0 2.97e+01  -7.9 1.00e+00 1.00e+00h  1
 163 -2.5622685e-01 5.09e-01 1.11e+02  -6.0 2.37e+01  -7.4 1.00e+00 1.00e+00h  1
 164 -2.5626198e-01 2.64e-01 3.87e+02  -6.0 5.95e+01  -7.9 3.27e-01 2.59e-01h  1
 165 -2.5660122e-01 1.71e-01 2.33e+03  -6.0 8.23e+01  -8.4 1.00e+00 1.00e+00h  1
 166 -2.5737762e-01 5.08e+00 1.31e+03  -6.0 7.89e+03    -  1.72e-01 1.67e-01h  1
 167 -2.5752299e-01 4.08e+00 3.71e+02  -6.0 6.68e+02  -8.9 2.03e-01 6.16e-01h  1
 168 -2.5804400e-01 2.04e+00 8.39e+02  -6.0 3.78e+02  -9.3 1.94e-01 5.46e-01h  1
 169 -2.5807256e-01 1.93e+00 1.13e+03  -6.0 1.82e+03  -9.8 1.53e-02 5.40e-02h  1
iter    objective    inf_pr   inf_du lg(mu)  ||d||  lg(rg) alpha_du alpha_pr  ls
 170 -2.5805621e-01 1.53e+00 9.10e+02  -6.0 3.23e+00  -4.9 2.44e-01 2.08e-01h  1
 171 -2.5804231e-01 1.22e+00 7.42e+02  -6.0 2.67e+00  -5.3 6.18e-01 1.99e-01h  1
 172 -2.5801190e-01 4.90e-01 4.11e+02  -6.0 2.23e+00  -5.8 7.76e-01 6.00e-01h  1
 173 -2.5799874e-01 8.58e-02 1.08e+02  -6.0 1.34e+00  -6.3 1.00e+00 8.25e-01h  1
 174 -2.5800719e-01 1.39e-02 9.98e+01  -6.0 2.19e+00  -6.8 1.00e+00 8.39e-01h  1
 175 -2.5801582e-01 2.04e-03 1.18e+02  -6.0 7.60e+00  -7.3 1.00e+00 9.18e-01f  1
 176 -2.5805039e-01 1.97e-02 5.77e+00  -6.0 2.16e+01  -7.7 1.00e+00 1.00e+00f  1
 177 -2.5815274e-01 2.03e-01 2.88e-01  -6.0 5.23e+01  -8.2 1.00e+00 1.00e+00h  1
 178 -2.5842967e-01 8.44e-01 4.27e+00  -6.0 1.74e+02  -8.7 1.00e+00 1.00e+00h  1
 179 -2.5853659e-01 1.13e+00 5.54e+00  -6.0 6.70e+03  -9.2 2.65e-02 1.54e-02h  1
iter    objective    inf_pr   inf_du lg(mu)  ||d||  lg(rg) alpha_du alpha_pr  ls
 180 -2.5889761e-01 4.79e+01 8.98e+01  -6.0 5.95e+03    -  5.16e-02 2.43e-01h  1
 181 -2.5896173e-01 4.18e+01 7.46e+01  -6.0 1.71e+03  -8.7 2.14e-01 1.66e-01h  1
 182 -2.5937018e-01 5.81e+01 5.18e+02  -6.0 5.24e+03    -  2.03e-01 2.69e-01h  1
 183 -2.5943035e-01 4.69e+01 4.79e+02  -6.0 6.94e+02  -8.3 3.73e-02 1.98e-01h  1
 184 -2.5947251e-01 3.28e+01 3.33e+02  -6.0 5.12e+02  -8.8 1.21e-01 3.10e-01h  1
 185 -2.5985006e-01 1.81e+00 7.79e+02  -6.0 3.31e+02  -9.3 5.16e-01 1.00e+00h  1
 186 -2.5994998e-01 1.20e+00 9.74e+01  -6.0 2.05e+02  -8.8 5.49e-01 3.39e-01h  1
 187 -2.6019995e-01 1.36e+00 9.27e+02  -6.0 1.79e+02  -8.4 7.30e-01 1.00e+00h  1
 188 -2.6030500e-01 3.16e-01 8.53e+02  -6.0 2.18e+01  -8.0 6.46e-01 1.00e+00h  1
 189 -2.6033010e-01 2.10e-02 3.56e+00  -6.0 1.50e+00  -6.7 1.00e+00 1.00e+00h  1
iter    objective    inf_pr   inf_du lg(mu)  ||d||  lg(rg) alpha_du alpha_pr  ls
 190 -2.6037375e-01 1.54e-01 4.06e+01  -6.0 1.03e+01  -7.1 1.00e+00 5.00e-01h  2
 191 -2.6042573e-01 2.81e-01 1.06e+02  -6.0 8.04e+01  -7.6 1.55e-01 5.45e-02h  3
 192 -2.6051993e-01 6.26e-01 1.46e+02  -6.0 1.89e+01  -8.1 1.00e+00 5.00e-01h  2
 193 -2.6065711e-01 4.77e-01 1.89e+02  -6.0 3.41e+01  -8.6 1.00e+00 1.00e+00h  1
 194 -2.6077373e-01 3.07e-01 5.91e+01  -6.0 1.01e+02  -9.0 1.00e+00 1.00e+00h  1
 195 -2.6081903e-01 1.90e+00 1.51e+01  -6.0 3.48e+02  -9.5 1.00e+00 1.00e+00h  1
 196 -2.6084013e-01 3.54e-01 2.35e-01  -6.0 1.47e+02  -9.1 1.00e+00 1.00e+00h  1
 197 -2.6093181e-01 7.61e+00 1.24e+01  -6.0 6.27e+02  -9.6 7.27e-01 1.00e+00h  1
 198 -2.6127211e-01 5.86e+01 2.23e+02  -6.0 7.73e+03 -10.1 6.28e-02 2.36e-01h  1
 199 -2.6127285e-01 5.17e+01 5.04e+02  -6.0 7.13e+03 -10.5 2.24e-01 1.52e-01h  1
iter    objective    inf_pr   inf_du lg(mu)  ||d||  lg(rg) alpha_du alpha_pr  ls
 200 -2.6137000e-01 4.92e+01 2.16e+02  -6.0 1.40e+04    -  1.30e-01 4.88e-02h  1
 201 -2.6150642e-01 1.44e+01 1.69e+03  -6.0 2.37e+03    -  2.20e-01 8.83e-01h  1
 202 -2.6151141e-01 1.39e+01 1.16e+03  -6.0 2.23e+03 -11.0 6.62e-01 4.89e-02h  1
 203 -2.6155385e-01 4.43e+00 4.38e+02  -6.0 1.68e+03    -  2.19e-01 6.81e-01h  1
 204 -2.6159162e-01 1.03e+00 2.90e+00  -6.0 3.34e+02    -  1.00e+00 1.00e+00h  1
 205 -2.6158444e-01 2.22e-01 7.33e-01  -6.0 1.15e+02    -  1.00e+00 1.00e+00h  1
 206 -2.6158471e-01 6.70e-03 1.29e-02  -6.0 4.13e+01    -  1.00e+00 1.00e+00h  1
 207 -2.6158468e-01 1.07e-05 1.23e-04  -6.0 8.01e-01    -  1.00e+00 1.00e+00h  1
 208 -2.6158468e-01 3.00e-10 4.32e-09  -6.0 4.53e-03    -  1.00e+00 1.00e+00h  1
 209 -2.6213726e-01 1.90e+00 3.42e+01  -7.5 3.03e+03    -  3.72e-01 2.52e-01f  1
iter    objective    inf_pr   inf_du lg(mu)  ||d||  lg(rg) alpha_du alpha_pr  ls
 210 -2.6228064e-01 1.93e+00 5.65e+01  -7.5 2.86e+03    -  2.36e-01 9.35e-02h  1
 211 -2.6248549e-01 1.49e+00 8.59e+01  -7.5 2.51e+02  -9.7 5.70e-01 2.51e-01h  1
 212 -2.6283102e-01 3.87e+00 4.25e+01  -7.5 2.57e+03    -  1.60e-01 3.65e-01h  1
 213 -2.6304985e-01 3.85e+00 4.05e+01  -7.5 1.76e+03    -  7.25e-01 4.08e-01h  1
 214 -2.6330380e-01 4.02e+00 7.64e+00  -7.5 1.31e+03    -  5.72e-01 9.16e-01h  1
 215 -2.6329449e-01 1.88e+00 4.46e+00  -7.5 4.62e+02    -  4.60e-01 5.50e-01h  1
 216 -2.6329079e-01 2.71e-01 1.20e-01  -7.5 3.48e+02    -  1.00e+00 1.00e+00h  1
 217 -2.6329507e-01 1.71e-01 1.85e-01  -7.5 2.21e+02    -  1.00e+00 1.00e+00h  1
 218 -2.6329942e-01 1.54e-01 3.53e-01  -7.5 2.22e+02    -  1.00e+00 1.00e+00h  1
 219 -2.6330551e-01 6.59e-03 3.20e-01  -7.5 2.34e+01  -8.3 7.35e-01 1.00e+00h  1
iter    objective    inf_pr   inf_du lg(mu)  ||d||  lg(rg) alpha_du alpha_pr  ls
 220 -2.6330755e-01 5.31e-03 6.58e-01  -7.5 5.13e+00  -7.0 1.00e+00 2.00e-01h  1
 221 -2.6331903e-01 1.02e+00 9.17e-02  -7.5 3.25e+02    -  1.00e+00 1.00e+00f  1
 222 -2.6331777e-01 3.26e-02 1.52e-03  -7.5 2.84e+01    -  1.00e+00 9.83e-01h  1
 223 -2.6331770e-01 7.40e-05 5.73e-06  -7.5 1.95e+00    -  1.00e+00 1.00e+00h  1
 224 -2.6331770e-01 1.54e-09 2.60e-09  -7.5 9.12e-03    -  1.00e+00 1.00e+00h  1
 225 -2.6332286e-01 1.60e-02 5.98e+00  -9.0 2.64e+02    -  8.10e-01 1.59e-01h  1
 226 -2.6332427e-01 3.27e-02 5.64e+00  -9.0 2.46e+02    -  7.59e-01 2.11e-01h  1
 227 -2.6332685e-01 2.46e-01 7.36e-01  -9.0 1.94e+02    -  1.00e+00 8.76e-01h  1
 228 -2.6332629e-01 1.80e-02 8.20e-04  -9.0 2.12e+01    -  1.00e+00 1.00e+00h  1
 229 -2.6332627e-01 1.93e-05 5.12e-08  -9.0 3.99e-01    -  1.00e+00 1.00e+00h  1
iter    objective    inf_pr   inf_du lg(mu)  ||d||  lg(rg) alpha_du alpha_pr  ls
 230 -2.6332627e-01 8.23e-10 6.69e-13  -9.0 2.60e-03    -  1.00e+00 1.00e+00h  1

Number of Iterations....: 230

                                   (scaled)                 (unscaled)
Objective...............:  -2.6332627350429205e-01   -2.6332627350429205e-01
Dual infeasibility......:   6.6946274912549342e-13    6.6946274912549342e-13
Constraint violation....:   8.2315287919243474e-10    8.2315287919243474e-10
Complementarity.........:   9.0955623695059806e-10    9.0955623695059806e-10
Overall NLP error.......:   9.0955623695059806e-10    9.0955623695059806e-10


Number of objective function evaluations             = 576
Number of objective gradient evaluations             = 231
Number of equality constraint evaluations            = 576
Number of inequality constraint evaluations          = 577
Number of equality constraint Jacobian evaluations   = 232
Number of inequality constraint Jacobian evaluations = 232
Number of Lagrangian Hessian evaluations             = 230
Total CPU secs in IPOPT (w/o function evaluations)   =    639.569
Total CPU secs in NLP function evaluations           =      9.980

EXIT: Optimal Solution Found.
